
List of user-set options:

                                    Name   Value                used
                         acceptable_iter = 0                     yes
                          acceptable_tol = 0.001                 yes
                             alpha_for_y = safer-min-dual-infeas  yes
                  bound_mult_init_method = mu-based              yes
                           compl_inf_tol = 0.001                 yes
                         constr_viol_tol = 0.001                 yes
                        file_print_level = 5                     yes
                   hessian_approximation = limited-memory        yes
                           linear_solver = mumps                 yes
                                max_iter = 500                   yes
                                 mu_init = 0.001                 yes
                             mu_strategy = monotone              yes
                      nlp_scaling_method = gradient-based        yes
                             output_file = reports/problem/IPOPT.out  yes
                             print_level = 0                     yes
                      print_user_options = yes                   yes
                                      sb = yes                   yes
                                     tol = 0.001                 yes
This is Ipopt version 3.14.13, running with linear solver MUMPS 5.2.1.

Number of nonzeros in equality constraint Jacobian...:     8296
Number of nonzeros in inequality constraint Jacobian.:     7650
Number of nonzeros in Lagrangian Hessian.............:        0

Total number of variables............................:      609
                     variables with only lower bounds:       50
                variables with lower and upper bounds:       51
                     variables with only upper bounds:        0
Total number of equality constraints.................:      505
Total number of inequality constraints...............:      750
        inequality constraints with only lower bounds:        0
   inequality constraints with lower and upper bounds:        0
        inequality constraints with only upper bounds:      750

iter    objective    inf_pr   inf_du lg(mu)  ||d||  lg(rg) alpha_du alpha_pr  ls
   0  1.0000000e+02 2.49e+00 7.08e-01  -3.0 0.00e+00    -  0.00e+00 0.00e+00   0
   1  9.9999001e-02 1.22e+02 3.44e+00  -3.0 1.71e+00    -  1.00e+00 5.83e-01f  1
   2  1.0535814e+01 1.34e+02 5.90e+00  -3.0 3.23e+00    -  6.29e-01 3.75e-01h  1
   3  1.0633805e+01 1.34e+02 4.37e+00  -3.0 1.86e+00    -  3.36e-01 4.56e-03h  1
   4  2.1500273e+01 9.66e+01 1.10e+01  -3.0 1.85e+00    -  1.00e+00 5.07e-01h  1
   5  2.4434537e+01 6.91e+01 5.31e-01  -3.0 9.98e-01    -  1.00e+00 3.06e-01h  1
   6  3.0509070e+01 8.44e+00 7.29e-01  -3.0 7.07e-01    -  8.24e-01 9.86e-01h  1
   7  2.9827027e+01 8.44e+00 9.09e-01  -3.0 1.26e+02    -  2.77e-02 4.57e-03f  1
   8  2.8809733e+01 6.45e+00 3.28e-01  -3.0 4.59e+00    -  2.52e-01 1.98e-01f  1
   9  2.7449689e+01 1.75e+01 2.87e-01  -3.0 1.17e+01    -  2.04e-01 1.65e-01h  1
iter    objective    inf_pr   inf_du lg(mu)  ||d||  lg(rg) alpha_du alpha_pr  ls
  10  2.7202686e+01 1.72e+01 2.78e-01  -3.0 2.89e+01    -  3.32e-02 3.09e-02h  1
  11  2.6616752e+01 1.57e+01 3.70e-01  -3.0 8.97e+01    -  1.72e-02 3.32e-02h  1
  12  2.6347820e+01 1.75e+01 6.05e-01  -3.0 3.19e+01    -  9.98e-02 4.73e-02h  1
  13  2.5986224e+01 1.83e+01 7.78e-01  -3.0 4.84e+01    -  5.02e-02 3.34e-02h  1
  14  2.5715960e+01 1.78e+01 8.95e-01  -3.0 3.69e+01    -  4.96e-02 4.23e-02h  1
  15  2.5476270e+01 1.62e+01 2.00e-01  -3.0 2.72e+01    -  1.80e-01 6.58e-02h  1
  16  2.5001423e+01 1.22e+01 2.44e-01  -3.0 1.92e+01    -  1.17e-01 1.87e-01h  1
  17  2.4568458e+01 1.11e+01 7.88e-01  -3.0 1.51e+01    -  1.16e-01 2.07e-01h  1
  18  2.4463413e+01 1.11e+01 1.17e+00  -3.0 1.10e+01    -  2.13e-01 4.84e-02h  1
  19  2.3912889e+01 2.49e+01 2.20e+00  -3.0 1.63e+01    -  1.29e-01 1.16e-01h  1
iter    objective    inf_pr   inf_du lg(mu)  ||d||  lg(rg) alpha_du alpha_pr  ls
  20  2.3638269e+01 2.63e+01 2.12e+00  -3.0 1.25e+01    -  6.31e-02 7.28e-02h  1
  21  2.3460725e+01 2.61e+01 2.09e+00  -3.0 1.06e+01    -  7.40e-02 6.17e-02h  1
  22  2.3303688e+01 2.51e+01 1.95e+00  -3.0 1.31e+01    -  1.32e-01 6.31e-02h  1
  23  2.3143772e+01 2.26e+01 1.69e+00  -3.0 1.25e+01    -  1.01e-01 1.09e-01h  1
  24  2.2762700e+01 2.44e+01 1.82e+00  -3.0 1.77e+01    -  8.66e-02 1.90e-01h  1
  25  2.2484004e+01 1.90e+01 1.78e+00  -3.0 1.80e+01    -  2.47e-01 1.80e-01h  1
  26  2.2468409e+01 1.86e+01 8.36e-01  -3.0 8.06e+00    -  4.86e-01 2.29e-02h  1
  27  2.2453432e+01 1.13e+01 4.20e-01  -3.0 3.88e+00    -  5.51e-01 4.32e-01h  1
  28  2.2407538e+01 8.26e+00 2.96e-01  -3.0 6.85e+00    -  5.22e-01 3.38e-01h  1
  29  2.2437722e+01 1.55e+00 7.94e-02  -3.0 2.24e+00    -  1.00e+00 8.94e-01h  1
iter    objective    inf_pr   inf_du lg(mu)  ||d||  lg(rg) alpha_du alpha_pr  ls
  30  2.2453790e+01 4.15e-01 7.60e-02  -3.0 8.51e-01    -  4.28e-01 6.49e-01h  1
  31  2.2462624e+01 1.13e-01 9.64e-02  -3.0 6.81e-01    -  6.98e-01 7.57e-01h  1
  32  2.2474737e+01 7.62e-02 5.75e-02  -3.0 3.96e-01    -  4.85e-01 1.00e+00h  1
  33  2.2470240e+01 3.52e-02 3.40e-02  -3.0 2.35e-01    -  1.00e+00 5.01e-01h  1
  34  2.2485942e+01 1.30e-02 6.89e-02  -3.0 2.53e-01    -  8.41e-01 1.00e+00H  1
  35  2.2477636e+01 6.74e-02 1.27e-02  -3.0 2.61e-01    -  1.00e+00 1.00e+00h  1
  36  2.2476775e+01 4.85e-02 5.94e-03  -3.0 1.40e-01    -  1.00e+00 1.00e+00h  1
  37  2.2475987e+01 7.55e-02 5.68e-03  -3.0 1.70e-01    -  1.00e+00 1.00e+00h  1
  38  2.2475162e+01 1.02e-01 3.15e-03  -3.0 1.43e-01    -  1.00e+00 1.00e+00h  1
  39  2.2473851e+01 1.51e-02 3.62e-03  -3.0 3.55e-01    -  1.00e+00 1.00e+00H  1
iter    objective    inf_pr   inf_du lg(mu)  ||d||  lg(rg) alpha_du alpha_pr  ls
  40  2.2472927e+01 6.24e-02 3.81e-03  -3.0 4.71e-01    -  1.00e+00 1.00e+00H  1
  41  2.2472545e+01 4.90e-02 2.86e-03  -3.0 6.49e-02    -  1.00e+00 1.00e+00h  1
  42  2.2472806e+01 4.91e-02 3.81e-03  -3.0 7.83e-02    -  1.00e+00 1.00e+00h  1
  43  2.2472929e+01 1.15e-02 2.35e-03  -3.0 2.12e-02    -  1.00e+00 1.00e+00h  1
  44  2.2472968e+01 3.93e-03 3.48e-04  -3.0 1.86e-02    -  1.00e+00 1.00e+00h  1
  45  2.2359035e+01 9.33e-01 1.86e-02  -4.0 9.27e-01    -  1.00e+00 7.22e-01f  1
  46  2.2329675e+01 1.23e+00 2.35e-02  -4.0 2.71e+00    -  8.87e-01 3.74e-01h  1
  47  2.2305355e+01 1.15e+00 4.87e-02  -4.0 2.68e+00    -  6.26e-01 4.19e-01h  1
  48  2.2286821e+01 6.18e-01 5.67e-02  -4.0 1.03e+00    -  1.00e+00 7.26e-01h  1
  49  2.2281133e+01 2.39e-01 2.79e-02  -4.0 2.77e-01    -  1.00e+00 6.77e-01h  1
iter    objective    inf_pr   inf_du lg(mu)  ||d||  lg(rg) alpha_du alpha_pr  ls
  50  2.2282137e+01 1.28e-01 1.44e-02  -4.0 1.56e-01    -  1.00e+00 6.57e-01h  1
  51  2.2282612e+01 1.83e-01 9.40e-03  -4.0 2.86e-01    -  1.00e+00 1.00e+00h  1
  52  2.2282077e+01 2.02e-01 1.05e-02  -4.0 3.12e-01    -  1.00e+00 1.00e+00h  1
  53  2.2281214e+01 2.57e-01 7.82e-03  -4.0 4.07e-01    -  1.00e+00 1.00e+00h  1
  54  2.2279998e+01 4.89e-01 6.87e-03  -4.0 7.77e-01    -  1.00e+00 1.00e+00h  1
  55  2.2277871e+01 1.16e+00 6.24e-03  -4.0 1.84e+00    -  1.00e+00 1.00e+00h  1
  56  2.2275181e+01 3.88e+00 3.57e-02  -4.0 1.39e+01    -  1.00e+00 3.64e-01h  1
  57  2.2262031e+01 8.69e-01 3.02e-02  -4.0 1.42e+00    -  1.00e+00 9.92e-01h  1
  58  2.2263133e+01 2.66e-01 5.99e-02  -4.0 3.26e-01    -  1.00e+00 1.00e+00h  1
  59  2.2260559e+01 1.94e-01 9.21e-03  -4.0 3.59e-01    -  1.00e+00 1.00e+00h  1
iter    objective    inf_pr   inf_du lg(mu)  ||d||  lg(rg) alpha_du alpha_pr  ls
  60  2.2265904e+01 8.04e-02 8.74e-03  -4.0 6.61e-02    -  1.00e+00 1.00e+00h  1
  61  2.2265790e+01 5.37e-02 7.50e-03  -4.0 9.04e-02    -  1.00e+00 1.00e+00h  1
  62  2.2265644e+01 3.79e-02 7.54e-03  -4.0 6.45e-02    -  1.00e+00 1.00e+00h  1
  63  2.2265847e+01 9.09e-03 1.61e-03  -4.0 2.64e-02    -  1.00e+00 1.00e+00h  1
  64  2.2265920e+01 8.73e-03 4.54e-03  -4.0 1.58e-02    -  1.00e+00 1.00e+00h  1
  65  2.2265892e+01 4.96e-03 3.10e-04  -4.0 7.08e-03    -  1.00e+00 1.00e+00h  1
  66  2.2265923e+01 6.28e-03 1.74e-04  -4.0 3.10e-03    -  1.00e+00 1.00e+00h  1
  67  2.2265862e+01 1.56e-02 4.94e-03  -4.0 6.94e-02    -  1.00e+00 1.00e+00H  1
  68  2.2265821e+01 2.06e-02 3.09e-03  -4.0 3.35e-02    -  1.00e+00 1.00e+00h  1
  69  2.2265813e+01 1.92e-02 6.05e-03  -4.0 3.05e-02    -  1.00e+00 1.00e+00h  1
iter    objective    inf_pr   inf_du lg(mu)  ||d||  lg(rg) alpha_du alpha_pr  ls
  70  2.2265793e+01 1.66e-02 4.00e-04  -4.0 2.68e-02    -  1.00e+00 1.00e+00h  1
  71  2.2265807e+01 5.72e-03 9.09e-05  -4.0 8.63e-03    -  1.00e+00 1.00e+00h  1
  72  2.2265796e+01 3.86e-03 1.50e-03  -4.0 1.89e-02    -  1.00e+00 1.00e+00H  1
  73  2.2265802e+01 4.54e-03 8.60e-04  -4.0 7.12e-03    -  1.00e+00 1.00e+00h  1
  74  2.2265798e+01 2.94e-03 9.05e-04  -4.0 6.75e-03    -  1.00e+00 1.00e+00H  1
  75  2.2265792e+01 5.49e-03 3.11e-04  -4.0 6.07e-03    -  1.00e+00 1.00e+00h  1
  76  2.2265792e+01 4.06e-03 8.31e-04  -4.0 4.60e-03    -  1.00e+00 1.00e+00h  1
  77  2.2265799e+01 1.88e-03 6.31e-04  -4.0 2.86e-03    -  1.00e+00 1.00e+00h  1
  78  2.2265803e+01 1.05e-03 2.89e-04  -4.0 3.43e-03    -  1.00e+00 1.00e+00h  1
  79  2.2265802e+01 4.89e-04 1.60e-04  -4.0 1.50e-03    -  1.00e+00 1.00e+00h  1

Number of Iterations....: 79

                                   (scaled)                 (unscaled)
Objective...............:   2.2265802382121734e+01    2.2265802382121734e+01
Dual infeasibility......:   1.6034253882135641e-04    1.6034253882135641e-04
Constraint violation....:   4.8893795673432550e-04    4.8893795673432550e-04
Variable bound violation:   0.0000000000000000e+00    0.0000000000000000e+00
Complementarity.........:   9.0909090909090917e-05    9.0909090909090917e-05
Overall NLP error.......:   4.8893795673432550e-04    4.8893795673432550e-04


Number of objective function evaluations             = 87
Number of objective gradient evaluations             = 80
Number of equality constraint evaluations            = 87
Number of inequality constraint evaluations          = 87
Number of equality constraint Jacobian evaluations   = 80
Number of inequality constraint Jacobian evaluations = 80
Number of Lagrangian Hessian evaluations             = 0
Total seconds in IPOPT                               = 14.242

EXIT: Optimal Solution Found.
